15
1 0 2
2 0 2
2 1 1
3 0 1
3 1 2
3 2 1
4 0 1
4 1 1
4 2 1
4 3 1
5 0 1
5 1 1
5 2 1
5 3 2
5 4 2
6 0 1
6 1 2
6 2 1
6 3 2
6 4 1
6 5 2
7 0 2
7 1 2
7 2 1
7 3 2
7 4 1
7 5 2
7 6 2
8 0 2
8 1 1
8 2 1
8 3 1
8 4 2
8 5 1
8 6 1
8 7 1
9 0 2
9 1 2
9 2 1
9 3 1
9 4 2
9 5 1
9 6 2
9 7 1
9 8 1
10 0 2
10 1 2
10 2 1
10 3 2
10 4 1
10 5 2
10 6 1
10 7 1
10 8 2
10 9 2
11 0 1
11 1 2
11 2 1
11 3 1
11 4 1
11 5 1
11 6 2
11 7 1
11 8 2
11 9 1
11 10 1
12 0 2
12 1 1
12 2 1
12 3 1
12 4 1
12 5 1
12 6 2
12 7 2
12 8 2
12 9 2
12 10 1
12 11 2
13 0 1
13 1 2
13 2 2
13 3 1
13 4 2
13 5 1
13 6 2
13 7 1
13 8 1
13 9 2
13 10 1
13 11 2
13 12 1
14 0 2
14 1 2
14 2 2
14 3 2
14 4 1
14 5 1
14 6 1
14 7 2
14 8 2
14 9 2
14 10 1
14 11 2
14 12 2
14 13 1
